c Random 3-CNF over 8 variables and 5 clauses
c Generated with `cnfgen`
c (C) 2012-2016 Massimo Lauria <lauria.massimo@gmail.com>
c https://massimolauria.github.io/cnfgen
c
c COMMAND LINE: cnfgen randkcnf 3 8 5
c
p cnf 8 5
-5 -7 8 0
-2 -5 6 0
-3 7 8 0
-1 -3 -8 0
-2 7 8 0
